c 
c G(k,n,p) graph
c graph gen seed     : 7214
c number of vertices : 80
c max number of edges: 1600
c number of classes  : 2
c edge density       : 0.400000
c edge probability   : 0.800000
c data structure     : dense
c
c           Graph Stats
c number of vertices  : 80
c nonisolated vertices: 80
c number of edges     : 1281
c edge density        : 0.405380
c max degree          : 37
c avg degree          : 32.02
c min degree          : 27
p col 80 1281
e 1 2
e 1 4
e 1 6
e 1 9
e 1 12
e 1 14
e 1 16
e 1 17
e 1 19
e 1 26
e 1 27
e 1 28
e 1 29
e 1 30
e 1 33
e 1 34
e 1 35
e 1 39
e 1 42
e 1 44
e 1 45
e 1 50
e 1 53
e 1 55
e 1 60
e 1 64
e 1 65
e 1 67
e 1 69
e 1 71
e 1 72
e 1 76
e 1 78
e 1 79
e 2 3
e 2 5
e 2 7
e 2 8
e 2 10
e 2 15
e 2 18
e 2 20
e 2 21
e 2 22
e 2 25
e 2 32
e 2 36
e 2 38
e 2 40
e 2 41
e 2 43
e 2 51
e 2 52
e 2 54
e 2 56
e 2 58
e 2 61
e 2 62
e 2 63
e 2 66
e 2 73
e 2 77
e 2 80
e 3 4
e 3 6
e 3 9
e 3 11
e 3 12
e 3 16
e 3 19
e 3 24
e 3 26
e 3 27
e 3 28
e 3 29
e 3 30
e 3 33
e 3 34
e 3 35
e 3 42
e 3 44
e 3 45
e 3 53
e 3 59
e 3 60
e 3 65
e 3 67
e 3 69
e 3 70
e 3 71
e 3 72
e 3 76
e 3 78
e 3 79
e 4 5
e 4 7
e 4 8
e 4 10
e 4 15
e 4 18
e 4 20
e 4 22
e 4 23
e 4 25
e 4 31
e 4 32
e 4 36
e 4 38
e 4 40
e 4 43
e 4 47
e 4 48
e 4 49
e 4 51
e 4 52
e 4 54
e 4 56
e 4 61
e 4 62
e 4 63
e 4 66
e 4 68
e 4 73
e 4 74
e 4 75
e 4 77
e 4 80
e 5 6
e 5 9
e 5 11
e 5 12
e 5 14
e 5 16
e 5 17
e 5 19
e 5 24
e 5 26
e 5 27
e 5 28
e 5 29
e 5 33
e 5 34
e 5 35
e 5 37
e 5 39
e 5 42
e 5 45
e 5 50
e 5 53
e 5 55
e 5 57
e 5 59
e 5 60
e 5 64
e 5 69
e 5 70
e 5 71
e 5 72
e 5 78
e 5 79
e 6 8
e 6 10
e 6 15
e 6 18
e 6 20
e 6 22
e 6 23
e 6 31
e 6 36
e 6 40
e 6 41
e 6 43
e 6 46
e 6 47
e 6 49
e 6 51
e 6 54
e 6 56
e 6 58
e 6 61
e 6 62
e 6 63
e 6 66
e 6 68
e 6 74
e 6 75
e 6 77
e 6 80
e 7 9
e 7 12
e 7 14
e 7 16
e 7 19
e 7 24
e 7 26
e 7 27
e 7 28
e 7 30
e 7 33
e 7 35
e 7 37
e 7 39
e 7 44
e 7 50
e 7 53
e 7 59
e 7 60
e 7 64
e 7 65
e 7 69
e 7 71
e 7 76
e 7 78
e 8 9
e 8 12
e 8 13
e 8 14
e 8 16
e 8 17
e 8 24
e 8 26
e 8 27
e 8 28
e 8 29
e 8 30
e 8 33
e 8 35
e 8 37
e 8 39
e 8 44
e 8 45
e 8 55
e 8 57
e 8 60
e 8 64
e 8 65
e 8 67
e 8 69
e 8 70
e 8 72
e 8 76
e 8 78
e 8 79
e 9 10
e 9 15
e 9 18
e 9 20
e 9 21
e 9 23
e 9 25
e 9 31
e 9 32
e 9 36
e 9 38
e 9 40
e 9 41
e 9 43
e 9 46
e 9 48
e 9 49
e 9 54
e 9 56
e 9 58
e 9 61
e 9 62
e 9 63
e 9 66
e 9 68
e 9 73
e 9 74
e 9 75
e 9 77
e 9 80
e 10 11
e 10 12
e 10 13
e 10 14
e 10 16
e 10 17
e 10 19
e 10 24
e 10 26
e 10 27
e 10 28
e 10 29
e 10 34
e 10 35
e 10 37
e 10 42
e 10 45
e 10 50
e 10 53
e 10 55
e 10 57
e 10 60
e 10 64
e 10 65
e 10 67
e 10 69
e 10 70
e 10 72
e 10 76
e 11 15
e 11 18
e 11 20
e 11 21
e 11 23
e 11 25
e 11 32
e 11 36
e 11 40
e 11 41
e 11 43
e 11 46
e 11 48
e 11 51
e 11 54
e 11 58
e 11 61
e 11 62
e 11 63
e 11 66
e 11 68
e 11 73
e 11 75
e 11 80
e 12 15
e 12 20
e 12 21
e 12 25
e 12 31
e 12 32
e 12 36
e 12 40
e 12 41
e 12 43
e 12 46
e 12 47
e 12 48
e 12 49
e 12 51
e 12 52
e 12 56
e 12 58
e 12 63
e 12 66
e 12 68
e 12 73
e 12 74
e 12 75
e 12 77
e 12 80
e 13 15
e 13 18
e 13 20
e 13 21
e 13 22
e 13 23
e 13 25
e 13 32
e 13 36
e 13 38
e 13 40
e 13 41
e 13 43
e 13 46
e 13 51
e 13 52
e 13 54
e 13 56
e 13 58
e 13 61
e 13 62
e 13 63
e 13 68
e 13 73
e 13 74
e 13 75
e 13 77
e 14 15
e 14 18
e 14 20
e 14 21
e 14 25
e 14 31
e 14 32
e 14 36
e 14 40
e 14 41
e 14 43
e 14 46
e 14 48
e 14 51
e 14 52
e 14 54
e 14 56
e 14 58
e 14 61
e 14 62
e 14 63
e 14 66
e 14 68
e 14 74
e 14 77
e 14 80
e 15 16
e 15 17
e 15 19
e 15 24
e 15 27
e 15 28
e 15 29
e 15 30
e 15 33
e 15 34
e 15 35
e 15 37
e 15 39
e 15 42
e 15 45
e 15 50
e 15 55
e 15 57
e 15 59
e 15 60
e 15 64
e 15 65
e 15 67
e 15 69
e 15 70
e 15 72
e 15 76
e 15 78
e 15 79
e 16 18
e 16 20
e 16 22
e 16 23
e 16 25
e 16 31
e 16 32
e 16 36
e 16 41
e 16 43
e 16 46
e 16 47
e 16 48
e 16 51
e 16 52
e 16 54
e 16 58
e 16 61
e 16 62
e 16 63
e 16 66
e 16 68
e 16 74
e 16 75
e 16 80
e 17 18
e 17 20
e 17 21
e 17 22
e 17 23
e 17 25
e 17 31
e 17 36
e 17 38
e 17 40
e 17 41
e 17 43
e 17 47
e 17 48
e 17 49
e 17 51
e 17 52
e 17 54
e 17 56
e 17 58
e 17 61
e 17 62
e 17 63
e 17 66
e 17 68
e 17 73
e 17 75
e 17 77
e 17 80
e 18 19
e 18 26
e 18 27
e 18 29
e 18 30
e 18 33
e 18 34
e 18 35
e 18 39
e 18 42
e 18 44
e 18 50
e 18 53
e 18 55
e 18 60
e 18 65
e 18 67
e 18 70
e 18 72
e 18 76
e 18 78
e 18 79
e 19 20
e 19 21
e 19 22
e 19 23
e 19 25
e 19 38
e 19 41
e 19 43
e 19 46
e 19 47
e 19 48
e 19 49
e 19 51
e 19 52
e 19 54
e 19 56
e 19 58
e 19 61
e 19 62
e 19 63
e 19 66
e 19 68
e 19 73
e 19 74
e 19 75
e 19 77
e 19 80
e 20 24
e 20 26
e 20 27
e 20 28
e 20 29
e 20 30
e 20 33
e 20 35
e 20 37
e 20 39
e 20 42
e 20 44
e 20 45
e 20 50
e 20 53
e 20 55
e 20 57
e 20 60
e 20 65
e 20 67
e 20 69
e 20 70
e 20 71
e 20 76
e 21 24
e 21 26
e 21 27
e 21 28
e 21 29
e 21 33
e 21 34
e 21 35
e 21 37
e 21 44
e 21 45
e 21 50
e 21 57
e 21 59
e 21 64
e 21 65
e 21 67
e 21 69
e 21 70
e 21 71
e 21 72
e 21 76
e 21 78
e 21 79
e 22 24
e 22 26
e 22 27
e 22 28
e 22 29
e 22 30
e 22 33
e 22 34
e 22 35
e 22 42
e 22 44
e 22 45
e 22 50
e 22 53
e 22 55
e 22 59
e 22 60
e 22 65
e 22 69
e 22 70
e 22 76
e 22 79
e 23 24
e 23 26
e 23 27
e 23 28
e 23 30
e 23 33
e 23 34
e 23 35
e 23 39
e 23 42
e 23 44
e 23 50
e 23 55
e 23 57
e 23 59
e 23 60
e 23 64
e 23 67
e 23 69
e 23 70
e 23 71
e 23 72
e 23 76
e 23 78
e 23 79
e 24 25
e 24 31
e 24 32
e 24 36
e 24 38
e 24 40
e 24 41
e 24 46
e 24 47
e 24 48
e 24 49
e 24 51
e 24 52
e 24 54
e 24 61
e 24 63
e 24 66
e 24 68
e 24 73
e 24 74
e 24 77
e 24 80
e 25 27
e 25 29
e 25 34
e 25 35
e 25 37
e 25 42
e 25 44
e 25 45
e 25 53
e 25 55
e 25 57
e 25 59
e 25 60
e 25 64
e 25 65
e 25 69
e 25 70
e 25 71
e 25 72
e 25 76
e 25 78
e 25 79
e 26 32
e 26 36
e 26 38
e 26 40
e 26 41
e 26 43
e 26 46
e 26 47
e 26 48
e 26 49
e 26 51
e 26 52
e 26 58
e 26 61
e 26 63
e 26 66
e 26 68
e 26 73
e 26 74
e 26 75
e 26 77
e 26 80
e 27 31
e 27 36
e 27 38
e 27 40
e 27 47
e 27 48
e 27 49
e 27 51
e 27 54
e 27 56
e 27 62
e 27 63
e 27 66
e 27 68
e 27 73
e 27 74
e 27 75
e 27 77
e 28 31
e 28 32
e 28 36
e 28 38
e 28 40
e 28 41
e 28 43
e 28 47
e 28 52
e 28 54
e 28 56
e 28 58
e 28 61
e 28 62
e 28 63
e 28 68
e 28 73
e 28 75
e 28 77
e 29 31
e 29 32
e 29 36
e 29 38
e 29 40
e 29 41
e 29 43
e 29 46
e 29 48
e 29 49
e 29 51
e 29 52
e 29 54
e 29 58
e 29 61
e 29 66
e 29 68
e 29 73
e 29 74
e 29 75
e 29 77
e 29 80
e 30 31
e 30 32
e 30 36
e 30 38
e 30 40
e 30 43
e 30 46
e 30 47
e 30 49
e 30 54
e 30 56
e 30 58
e 30 61
e 30 62
e 30 63
e 30 66
e 30 68
e 30 74
e 30 75
e 30 77
e 30 80
e 31 33
e 31 34
e 31 35
e 31 37
e 31 39
e 31 42
e 31 44
e 31 45
e 31 50
e 31 53
e 31 55
e 31 59
e 31 60
e 31 64
e 31 67
e 31 69
e 31 70
e 31 78
e 32 33
e 32 34
e 32 35
e 32 39
e 32 42
e 32 44
e 32 50
e 32 53
e 32 55
e 32 59
e 32 64
e 32 65
e 32 69
e 32 70
e 32 71
e 32 72
e 32 78
e 32 79
e 33 36
e 33 38
e 33 40
e 33 43
e 33 47
e 33 48
e 33 49
e 33 51
e 33 52
e 33 56
e 33 58
e 33 61
e 33 66
e 33 68
e 33 73
e 33 74
e 33 77
e 33 80
e 34 38
e 34 40
e 34 41
e 34 43
e 34 46
e 34 48
e 34 51
e 34 52
e 34 54
e 34 56
e 34 58
e 34 61
e 34 62
e 34 63
e 34 68
e 34 73
e 34 74
e 34 75
e 34 80
e 35 36
e 35 38
e 35 40
e 35 41
e 35 46
e 35 47
e 35 48
e 35 49
e 35 51
e 35 52
e 35 54
e 35 58
e 35 62
e 35 63
e 35 66
e 35 68
e 35 73
e 35 74
e 35 75
e 35 80
e 36 37
e 36 39
e 36 42
e 36 44
e 36 45
e 36 53
e 36 55
e 36 57
e 36 59
e 36 60
e 36 65
e 36 67
e 36 69
e 36 70
e 36 72
e 36 76
e 36 78
e 37 40
e 37 41
e 37 43
e 37 46
e 37 47
e 37 48
e 37 49
e 37 52
e 37 54
e 37 56
e 37 58
e 37 61
e 37 62
e 37 63
e 37 66
e 37 68
e 37 73
e 37 77
e 37 80
e 38 39
e 38 45
e 38 50
e 38 53
e 38 55
e 38 57
e 38 59
e 38 60
e 38 64
e 38 65
e 38 69
e 38 71
e 38 76
e 38 78
e 38 79
e 39 40
e 39 41
e 39 43
e 39 46
e 39 47
e 39 48
e 39 49
e 39 51
e 39 52
e 39 54
e 39 56
e 39 58
e 39 61
e 39 66
e 39 68
e 39 73
e 39 74
e 39 75
e 39 77
e 39 80
e 40 42
e 40 45
e 40 50
e 40 53
e 40 55
e 40 57
e 40 60
e 40 67
e 40 69
e 40 71
e 40 72
e 40 76
e 40 78
e 40 79
e 41 44
e 41 45
e 41 50
e 41 53
e 41 55
e 41 57
e 41 59
e 41 64
e 41 67
e 41 69
e 41 70
e 41 72
e 41 76
e 41 78
e 41 79
e 42 43
e 42 46
e 42 47
e 42 48
e 42 49
e 42 51
e 42 52
e 42 54
e 42 56
e 42 61
e 42 62
e 42 63
e 42 73
e 42 74
e 42 75
e 42 77
e 43 44
e 43 45
e 43 55
e 43 57
e 43 59
e 43 60
e 43 64
e 43 65
e 43 67
e 43 69
e 43 70
e 43 71
e 43 72
e 43 76
e 43 79
e 44 46
e 44 47
e 44 48
e 44 49
e 44 51
e 44 52
e 44 54
e 44 56
e 44 61
e 44 62
e 44 63
e 44 66
e 44 68
e 44 73
e 44 74
e 44 77
e 44 80
e 45 46
e 45 47
e 45 48
e 45 51
e 45 52
e 45 54
e 45 58
e 45 61
e 45 62
e 45 63
e 45 66
e 45 68
e 45 74
e 45 75
e 45 77
e 45 80
e 46 50
e 46 53
e 46 55
e 46 57
e 46 59
e 46 60
e 46 64
e 46 65
e 46 67
e 46 69
e 46 70
e 46 71
e 46 72
e 46 76
e 46 78
e 46 79
e 47 50
e 47 53
e 47 57
e 47 59
e 47 64
e 47 65
e 47 69
e 47 70
e 47 72
e 47 78
e 47 79
e 48 50
e 48 53
e 48 55
e 48 57
e 48 59
e 48 65
e 48 67
e 48 69
e 48 71
e 48 72
e 48 78
e 49 50
e 49 55
e 49 57
e 49 60
e 49 64
e 49 65
e 49 67
e 49 69
e 49 76
e 49 78
e 50 51
e 50 52
e 50 54
e 50 56
e 50 58
e 50 61
e 50 62
e 50 63
e 50 66
e 50 68
e 50 73
e 50 74
e 50 75
e 50 80
e 51 53
e 51 57
e 51 59
e 51 60
e 51 64
e 51 67
e 51 69
e 51 70
e 51 71
e 51 72
e 51 76
e 51 78
e 52 53
e 52 55
e 52 59
e 52 60
e 52 65
e 52 67
e 52 69
e 52 70
e 52 71
e 52 72
e 52 76
e 52 78
e 53 54
e 53 56
e 53 61
e 53 62
e 53 63
e 53 66
e 53 68
e 53 73
e 53 75
e 53 77
e 53 80
e 54 57
e 54 59
e 54 60
e 54 64
e 54 65
e 54 67
e 54 69
e 54 70
e 54 71
e 54 76
e 54 78
e 54 79
e 55 56
e 55 61
e 55 63
e 55 68
e 55 73
e 55 74
e 55 75
e 55 77
e 55 80
e 56 57
e 56 59
e 56 64
e 56 65
e 56 67
e 56 69
e 56 70
e 56 71
e 56 72
e 56 76
e 56 78
e 56 79
e 57 61
e 57 62
e 57 63
e 57 66
e 57 74
e 57 75
e 57 77
e 58 60
e 58 64
e 58 65
e 58 67
e 58 69
e 58 70
e 58 71
e 58 72
e 58 76
e 58 78
e 58 79
e 59 61
e 59 62
e 59 63
e 59 68
e 59 73
e 59 80
e 60 63
e 60 68
e 60 73
e 60 74
e 60 75
e 60 77
e 60 80
e 61 67
e 61 70
e 61 71
e 61 72
e 61 78
e 61 79
e 62 65
e 62 67
e 62 70
e 62 71
e 62 72
e 62 76
e 62 78
e 62 79
e 63 64
e 63 65
e 63 69
e 63 70
e 63 71
e 63 72
e 63 76
e 63 78
e 64 66
e 64 73
e 64 74
e 64 75
e 64 77
e 64 80
e 65 68
e 65 73
e 65 74
e 65 75
e 65 77
e 65 80
e 66 67
e 66 69
e 66 70
e 66 71
e 66 72
e 66 76
e 66 78
e 66 79
e 67 68
e 67 73
e 67 74
e 67 75
e 67 77
e 68 69
e 68 71
e 68 72
e 68 76
e 68 78
e 68 79
e 69 73
e 69 74
e 69 75
e 69 77
e 69 80
e 70 73
e 70 74
e 70 75
e 70 77
e 71 73
e 71 74
e 71 75
e 71 77
e 71 80
e 72 73
e 72 75
e 72 77
e 72 80
e 73 78
e 73 79
e 74 76
e 74 78
e 74 79
e 75 76
e 75 78
e 75 79
e 76 77
e 76 80
e 77 78
e 77 79
e 78 80
e 79 80
